% RUNS ON flatzinc
% RUNS ON fzn_lp_canon
% RUNS ON fzn_fdlp_canon
constraint float_lin_le([1.0, 2.0, 3.0], [1.0, 2.0, 3.0], 100.0);
constraint float_lin_le([1.0, 2.0, 3.0], [1.0, 2.0, 3.0], 14.0);
solve satisfy;
